SCIP version 0.82 [precision: 8 byte] [memory: block] [mode: optimized] [LP solver: SOPLEX 1.3.0]
Copyright (c) 2002-2006 Konrad-Zuse-Zentrum fuer Informationstechnik Berlin (ZIB)

reading parameter file <scip.set>

read problem </ufs/psxjm3/instances/random_7.ctt.e.zpl>
============

****************************************************
* Zuse Institute Mathematical Programming Language *
* Release 2.04  Copyright (C)2005 by Thorsten Koch *
****************************************************

original problem has 46206 variables (46105 bin, 101 int, 0 impl, 0 cont) and 11860 constraints

solve problem
=============

LP Solver <SOPLEX 1.3.0>: dual feasibility tolerance cannot be set -- tolerance of SCIP and LP solver may differ
LP Solver <SOPLEX 1.3.0>: barrier convergence tolerance cannot be set -- tolerance of SCIP and LP solver may differ
LP Solver <SOPLEX 1.3.0>: fastmip setting not available -- SCIP parameter has no effect
LP Solver <SOPLEX 1.3.0>: scaling not available -- SCIP parameter has no effect
LP Solver <SOPLEX 1.3.0>: presolving not available -- SCIP parameter has no effect
transformed problem has 46206 variables (46105 bin, 101 int, 0 impl, 0 cont) and 11860 constraints
  11860 constraints of type <linear>

presolving:
(round 1) 6314 del vars, 481 del conss, 6314 chg bounds, 0 chg sides, 0 chg coeffs, 0 upgd conss, 0 impls, 6166 clqs
(round 2) 6314 del vars, 914 del conss, 6314 chg bounds, 0 chg sides, 0 chg coeffs, 0 upgd conss, 0 impls, 6166 clqs
(round 3) 6314 del vars, 3635 del conss, 6314 chg bounds, 2729 chg sides, 0 chg coeffs, 0 upgd conss, 0 impls, 6166 clqs
(round 4) 6314 del vars, 3635 del conss, 6314 chg bounds, 2729 chg sides, 0 chg coeffs, 7651 upgd conss, 0 impls, 6166 clqs
(round 5) 6314 del vars, 3844 del conss, 6314 chg bounds, 2729 chg sides, 18 chg coeffs, 7651 upgd conss, 0 impls, 6166 clqs
   (272.9s) probing: 100/39791 (0.3%) - 0 fixings, 0 aggregations, 0 implications, 0 bound changes
presolving (6 rounds):
 6314 deleted vars, 3844 deleted constraints, 6314 tightened bounds, 0 added holes, 2729 changed sides, 18 changed coefficients
 0 implications, 6166 cliques
presolved problem has 39892 variables (39791 bin, 101 int, 0 impl, 0 cont) and 8016 constraints
   2998 constraints of type <knapsack>
   3987 constraints of type <setppc>
    574 constraints of type <linear>
    457 constraints of type <logicor>
objective value is always integral
Presolving Time: 271.31

 time | node  | left  |LP iter| mem |mdpt |frac |vars |cons |ccons|cols |rows |cuts |confs|strbr|  dualbound   | primalbound  |  gap   
  407s|     1 |     0 | 10732 | 332M|   0 |1100 |  39k|8016 |8016 |  39k|8016 |   0 |   0 |   0 | 3.814000e+03 |      --      |    Inf 
  455s|     1 |     0 | 13639 | 334M|   0 |1178 |  39k|8016 |8016 |  39k|8022 |   6 |   0 |   0 | 3.814000e+03 |      --      |    Inf 
  536s|     1 |     0 | 18237 | 334M|   0 |1228 |  39k|8016 |8016 |  39k|8027 |  11 |   0 |   0 | 3.814000e+03 |      --      |    Inf 
  581s|     1 |     0 | 20764 | 334M|   0 |1227 |  39k|8016 |8016 |  39k|8035 |  19 |   0 |   0 | 3.814000e+03 |      --      |    Inf 
  635s|     1 |     0 | 23722 | 334M|   0 |1229 |  39k|8016 |8016 |  39k|8041 |  25 |   0 |   0 | 3.814000e+03 |      --      |    Inf 
  713s|     1 |     0 | 27965 | 334M|   0 |1235 |  39k|8016 |8016 |  39k|8048 |  32 |   0 |   0 | 3.814000e+03 |      --      |    Inf 
  756s|     1 |     0 | 30198 | 334M|   0 |1243 |  39k|8016 |8016 |  39k|8054 |  38 |   0 |   0 | 3.814000e+03 |      --      |    Inf 
 1402s|     1 |     2 | 40198 | 334M|   0 |1243 |  39k|8016 |8016 |  39k|8054 |  38 |   0 |  24 | 3.814000e+03 |      --      |    Inf 

SCIP Status        : solving was interrupted [time limit reached]
Solving Time (sec) : 7219.04
Solving Nodes      : 53
Primal Bound       : +1.00000000000000e+20 (0 solutions)
Dual Bound         : +3.81400000000000e+03
Gap                : infinite

primal solution:
================

no solution available

Statistics
==========

SCIP Status        : solving was interrupted [time limit reached]
Solving Time       :    7219.04
Original Problem   :
  Problem name     : random_7.ctt.e.zpl
  Variables        : 46206 (46105 binary, 101 integer, 0 implicit integer, 0 continuous)
  Constraints      : 11860 initial, 11860 maximal
Presolved Problem  :
  Problem name     : t_random_7.ctt.e.zpl
  Variables        : 39892 (39791 binary, 101 integer, 0 implicit integer, 0 continuous)
  Constraints      : 8016 initial, 8016 maximal
Presolvers         :       Time  FixedVars   AggrVars   ChgTypes  ChgBounds   AddHoles    DelCons   ChgSides   ChgCoefs
  trivial          :       0.04          0          0          0          0          0          0          0          0
  inttobinary      :       0.00          0          0          0          0          0          0          0          0
  dualfix          :       0.04          0          0          0          0          0          0          0          0
  implics          :       0.01          0          0          0          0          0          0          0          0
  probing          :       9.67          0          0          0          0          0          0          0          0
  knapsack         :     194.10          0          0          0          0          0          0          0         18
  setppc           :       2.21          0          0          0          0          0        209          0          0
  linear           :      64.05       6314          0          0       6314          0       3635       2729          0
  logicor          :       0.01          0          0          0          0          0          0          0          0
  root node        :          -          0          -          -          0          -          -          -          -
Constraints        :     Number  #Separate #Propagate    #EnfoLP    #EnfoPS    Cutoffs    DomReds       Cuts      Conss   Children
  integral         :          0          0          0         53          0          0          0          0          0        106
  knapsack         :       2998          6        286          0          0          0          0          0          0          0
  setppc           :       3987          6        286          0          0          0       5123          0          0          0
  linear           :        574          6        219          0          0          0          0          0          0          0
  logicor          :        457          6        186          0          0          0          0          0          0          0
Constraint Timings :  TotalTime   Separate  Propagate     EnfoLP     EnfoPS
  integral         :    3780.94       0.00       0.00    3780.94       0.00
  knapsack         :       3.99       3.89       0.10       0.00       0.00
  setppc           :       0.22       0.00       0.22       0.00       0.00
  linear           :       7.62       0.90       6.72       0.00       0.00
  logicor          :       0.01       0.00       0.01       0.00       0.00
Propagators        :       Time      Calls    Cutoffs    DomReds
  rootredcost      :       0.00          0          0          0
  pseudoobj        :       0.00         86          0          0
Conflict Analysis  :       Time      Calls    Success  Conflicts   Literals    Reconvs ReconvLits   LP Iters
  propagation      :       0.00          0          0          0        0.0          0        0.0          -
  infeasible LP    :       0.00          0          0          0        0.0          0        0.0          0
  bound exceed. LP :       0.00          0          0          0        0.0          0        0.0          0
  strong branching :       0.00          0          0          0        0.0          0        0.0          0
  pseudo solution  :       0.00          0          0          0        0.0          0        0.0          -
  applied globally :          -          -          -          0        0.0          -          -          -
  applied locally  :          -          -          -          0        0.0          -          -          -
Separators         :       Time      Calls    Cutoffs    DomReds       Cuts      Conss
  cut pool         :       0.00          5          -          -          1          -    (maximal pool size: 38)
  redcost          :       0.69         58          0          0          0          0
  impliedbounds    :       0.09          6          0          0          0          0
  intobj           :       0.00          0          0          0          0          0
  gomory           :       5.24          6          0          0          0          0
  strongcg         :       5.90          6          0          0          0          0
  cmir             :       8.58          6          0          0          0          0
  clique           :       0.91          6          0          0         37          0
Pricers            :       Time      Calls       Vars
  problem variables:       0.00          0          0
Branching Rules    :       Time      Calls    Cutoffs    DomReds       Cuts      Conss   Children
  relpscost        :    3780.94         53          0          0          0          0        106
  pscost           :       0.00          0          0          0          0          0          0
  inference        :       0.00          0          0          0          0          0          0
  mostinf          :       0.00          0          0          0          0          0          0
  leastinf         :       0.00          0          0          0          0          0          0
  fullstrong       :       0.00          0          0          0          0          0          0
  allfullstrong    :       0.00          0          0          0          0          0          0
Primal Heuristics  :       Time      Calls      Found
  LP solutions     :       0.00          -          0
  pseudo solutions :       0.00          -          0
  coefdiving       :       0.00          0          0
  pscostdiving     :       0.00          0          0
  fracdiving       :       0.00          0          0
  objpscostdiving  :       0.00          0          0
  rootsoldiving    :       0.00          0          0
  linesearchdiving :       0.00          0          0
  guideddiving     :       0.00          0          0
  crossover        :       0.00          0          0
  feaspump         :     231.38          1          0
  simplerounding   :       0.70         59          0
  rounding         :       2.72         59          0
  shifting         :       2.93         12          0
  fixandinfer      :       0.00          0          0
  intdiving        :       0.00          0          0
  octane           :       0.00          0          0
  rins             :       0.00          0          0
  localbranching   :       0.00          0          0
LP                 :       Time      Calls Iterations  Iter/call   Iter/sec
  primal LP        :       0.10          0          0       0.00       0.00
  dual LP          :    2896.81         59     173309    2937.44      59.83
  barrier LP       :       0.00          0          0       0.00          -
  diving/probing LP:     231.31          1      10000   10000.00      43.23
  strong branching :    3780.87        220     214012     972.78      56.60
    (at root node) :          -         24      23002     958.42          -
  conflict analysis:       0.00          0          0       0.00          -
B&B Tree           :
  number of runs   :          1
  nodes            :         53
  nodes (total)    :         53
  nodes left       :         54
  max depth        :         52
  max depth (total):         52
  backtracks       :          0 (0.0%)
  delayed cutoffs  :          0
  repropagations   :          0 (0 domain reductions, 0 cutoffs)
  avg switch length:       1.00
  switching time   :       0.20
Solution           :
  Solutions found  :          0 (0 improvements)
  Primal Bound     :          -
  Dual Bound       : +3.81400000000000e+03
  Gap              :   infinite
  Root Dual Bound  : +3.81400000000000e+03
